




































































































35 22 25 60 69 
70 5 68 67 4 48 
13 23 19 37 56 
38 30 15 64 28 10 
26 61 66 39 16 14 
7 57 62 54 12 11 
52 55 32 53 49 9 
47 51 0 33 1 41 
2 45 74 40 17 34 
58 43 36 65 42 
72 76 31 27 18 6 
75 46 21 44 63 3 
8 50 73 29 59 
20 24 71 
